(set-info :source |printed by MathSAT|)
(declare-fun call__DRAGON_.ite57 () Int)
(declare-fun call_First4.First () Int)
(declare-fun call__DRAGON_.exclusive () Int)
(declare-fun call__DRAGON_.ite36 () Int)
(declare-fun dirty () Int)
(declare-fun param_e08 () Bool)
(declare-fun call__DRAGON_.ite15 () Int)
(declare-fun param_e03 () Bool)
(declare-fun call__DRAGON_.ite6 () Int)
(declare-fun call__DRAGON_.ite38 () Int)
(declare-fun param_e07 () Bool)
(declare-fun call__DRAGON_.ite2 () Int)
(declare-fun call__DRAGON_.flby6 () Int)
(declare-fun call__DRAGON_.ite42 () Int)
(declare-fun _R14_ () Bool)
(declare-fun _R11_ () Bool)
(declare-fun _R8_ () Bool)
(declare-fun call__DRAGON_.shared () Int)
(declare-fun param_e05 () Bool)
(declare-fun call__DRAGON_.flby5 () Int)
(declare-fun call_First2.flby () Int)
(declare-fun _R5_ () Bool)
(declare-fun _R2_ () Bool)
(declare-fun call__DRAGON_.ite12 () Int)
(declare-fun shared_dirty () Int)
(declare-fun call__DRAGON_.ite28 () Int)
(declare-fun call__DRAGON_.flby () Int)
(declare-fun param_e09 () Bool)
(declare-fun call__DRAGON_.g05 () Bool)
(declare-fun call__DRAGON_.ite14 () Int)
(declare-fun call__DRAGON_.ite17 () Int)
(declare-fun call_First3.flby () Int)
(declare-fun call__DRAGON_.ite22 () Int)
(declare-fun param_e04 () Bool)
(declare-fun call__DRAGON_.ite8 () Int)
(declare-fun call__DRAGON_.dirty () Int)
(declare-fun call__DRAGON_.ite20 () Int)
(declare-fun param_init_invalid () Int)
(declare-fun call__DRAGON_.ite29 () Int)
(declare-fun call__DRAGON_.ite37 () Int)
(declare-fun call__DRAGON_.g04 () Bool)
(declare-fun call__DRAGON_.ite11 () Int)
(declare-fun call__DRAGON_.ite25 () Int)
(declare-fun call__DRAGON_.ite56 () Int)
(declare-fun call__DRAGON_.ite34 () Int)
(declare-fun call_First3.First () Int)
(declare-fun _R7_ () Bool)
(declare-fun call__DRAGON_.ite26 () Int)
(declare-fun shared () Int)
(declare-fun call__DRAGON_.ite21 () Int)
(declare-fun erreur () Bool)
(declare-fun call__DRAGON_.ite46 () Int)
(declare-fun flby () Bool)
(declare-fun call__DRAGON_.ite40 () Int)
(declare-fun call_First4.flby () Int)
(declare-fun _R12_ () Bool)
(declare-fun _R9_ () Bool)
(declare-fun call_Sofar.flby () Bool)
(declare-fun call__DRAGON_.ite58 () Int)
(declare-fun call__DRAGON_.ite4 () Int)
(declare-fun call__DRAGON_.invalid () Int)
(declare-fun call__DRAGON_.ite61 () Int)
(declare-fun call__DRAGON_.ite7 () Int)
(declare-fun _R6_ () Bool)
(declare-fun _R3_ () Bool)
(declare-fun call__DRAGON_.flby3 () Int)
(declare-fun call__DRAGON_.ite55 () Int)
(declare-fun call__DRAGON_.ite3 () Int)
(declare-fun call__DRAGON_.ite () Bool)
(declare-fun call__DRAGON_.shared_dirty () Int)
(declare-fun call__DRAGON_.flby2 () Int)
(declare-fun call__DRAGON_.ite18 () Int)
(declare-fun call__DRAGON_.ite31 () Int)
(declare-fun call_First2.First () Int)
(declare-fun call__DRAGON_.ite45 () Int)
(declare-fun call__DRAGON_.ite33 () Int)
(declare-fun call__DRAGON_.ite13 () Int)
(declare-fun call_excludes12.excludes () Bool)
(declare-fun param_e12 () Bool)
(declare-fun call__DRAGON_.ite35 () Int)
(declare-fun call_First.First () Int)
(declare-fun call__DRAGON_.g06 () Bool)
(declare-fun call__DRAGON_.flby4 () Int)
(declare-fun call__DRAGON_.ite47 () Int)
(declare-fun call_First5.First () Int)
(declare-fun call__DRAGON_.mem_init () Int)
(declare-fun call__DRAGON_.ite54 () Int)
(declare-fun _OK_ () Bool)
(declare-fun call__DRAGON_.g02 () Bool)
(declare-fun call__DRAGON_.g08 () Bool)
(declare-fun call__DRAGON_.ite32 () Int)
(declare-fun param_e06 () Bool)
(declare-fun call__DRAGON_.ite43 () Int)
(declare-fun call__DRAGON_.ite9 () Int)
(declare-fun call__DRAGON_.ite60 () Int)
(declare-fun param_e02 () Bool)
(declare-fun env () Bool)
(declare-fun param_e10 () Bool)
(declare-fun call__DRAGON_.ite49 () Int)
(declare-fun call_First.flby () Int)
(declare-fun call__DRAGON_.ite53 () Int)
(declare-fun _R13_ () Bool)
(declare-fun _R10_ () Bool)
(declare-fun param_e11 () Bool)
(declare-fun call__DRAGON_.ite24 () Int)
(declare-fun invalid () Int)
(declare-fun call__DRAGON_.ite30 () Int)
(declare-fun call__DRAGON_.ite52 () Int)
(declare-fun _R4_ () Bool)
(declare-fun call__DRAGON_.ite50 () Int)
(declare-fun call__DRAGON_.ite23 () Int)
(declare-fun call__DRAGON_.ite48 () Int)
(declare-fun call__DRAGON_.ite19 () Int)
(declare-fun call__DRAGON_.ite16 () Int)
(declare-fun call__DRAGON_.ite5 () Int)
(declare-fun call__DRAGON_.ite44 () Int)
(declare-fun call_First5.flby () Int)
(declare-fun exclusive () Int)
(declare-fun call_Sofar.Sofar () Bool)
(declare-fun call__DRAGON_.ite59 () Int)
(declare-fun call__DRAGON_.ite10 () Int)
(declare-fun param_e01 () Bool)
(declare-fun _R1_ () Bool)
(declare-fun call__DRAGON_.erreur () Bool)
(declare-fun call__DRAGON_.ite39 () Int)
(declare-fun call__DRAGON_.ite51 () Int)
(declare-fun call__DRAGON_.ite27 () Int)
(declare-fun call__DRAGON_.ite41 () Int)
(define-fun .def_2157 () Bool (= call_First5.flby call_First5.First))
(define-fun .def_2155 () Bool (= call_First4.flby call_First4.First))
(define-fun .def_2153 () Bool (= call_First3.flby call_First3.First))
(define-fun .def_2151 () Bool (= call_First2.flby call_First2.First))
(define-fun .def_2149 () Bool (= call_First.flby call_First.First))
(define-fun .def_2147 () Bool (= call_Sofar.flby call_Sofar.Sofar))
(define-fun .def_1980 () Bool (not param_e02))
(define-fun .def_1691 () Bool (not param_e03))
(define-fun .def_2122 () Bool (and .def_1691 .def_1980))
(define-fun .def_1674 () Bool (not param_e04))
(define-fun .def_2123 () Bool (and .def_1674 .def_2122))
(define-fun .def_1710 () Bool (not param_e05))
(define-fun .def_2124 () Bool (and .def_1710 .def_2123))
(define-fun .def_1728 () Bool (not param_e06))
(define-fun .def_2125 () Bool (and .def_1728 .def_2124))
(define-fun .def_1802 () Bool (not param_e07))
(define-fun .def_2126 () Bool (and .def_1802 .def_2125))
(define-fun .def_1882 () Bool (not param_e08))
(define-fun .def_2127 () Bool (and .def_1882 .def_2126))
(define-fun .def_1553 () Bool (not param_e09))
(define-fun .def_2128 () Bool (and .def_1553 .def_2127))
(define-fun .def_1561 () Bool (not param_e10))
(define-fun .def_2129 () Bool (and .def_1561 .def_2128))
(define-fun .def_1568 () Bool (not param_e11))
(define-fun .def_2130 () Bool (and .def_1568 .def_2129))
(define-fun .def_1575 () Bool (not param_e12))
(define-fun .def_2131 () Bool (and .def_1575 .def_2130))
(define-fun .def_1962 () Bool (not param_e01))
(define-fun .def_2132 () Bool (or .def_1962 .def_2131))
(define-fun .def_2111 () Bool (and param_e01 .def_1980))
(define-fun .def_2112 () Bool (and .def_1691 .def_2111))
(define-fun .def_2113 () Bool (and .def_1674 .def_2112))
(define-fun .def_2114 () Bool (and .def_1710 .def_2113))
(define-fun .def_2115 () Bool (and .def_1728 .def_2114))
(define-fun .def_2116 () Bool (and .def_1802 .def_2115))
(define-fun .def_2117 () Bool (and .def_1882 .def_2116))
(define-fun .def_2118 () Bool (and .def_1553 .def_2117))
(define-fun .def_2119 () Bool (and .def_1561 .def_2118))
(define-fun .def_2120 () Bool (and .def_1568 .def_2119))
(define-fun .def_2121 () Bool (and .def_1575 .def_2120))
(define-fun .def_2133 () Bool (or .def_2121 .def_2132))
(define-fun .def_2100 () Bool (and .def_1962 param_e02))
(define-fun .def_2101 () Bool (and .def_1691 .def_2100))
(define-fun .def_2102 () Bool (and .def_1674 .def_2101))
(define-fun .def_2103 () Bool (and .def_1710 .def_2102))
(define-fun .def_2104 () Bool (and .def_1728 .def_2103))
(define-fun .def_2105 () Bool (and .def_1802 .def_2104))
(define-fun .def_2106 () Bool (and .def_1882 .def_2105))
(define-fun .def_2107 () Bool (and .def_1553 .def_2106))
(define-fun .def_2108 () Bool (and .def_1561 .def_2107))
(define-fun .def_2109 () Bool (and .def_1568 .def_2108))
(define-fun .def_2110 () Bool (and .def_1575 .def_2109))
(define-fun .def_2134 () Bool (or .def_2110 .def_2133))
(define-fun .def_2035 () Bool (and .def_1962 .def_1980))
(define-fun .def_2090 () Bool (and param_e03 .def_2035))
(define-fun .def_2091 () Bool (and .def_1674 .def_2090))
(define-fun .def_2092 () Bool (and .def_1710 .def_2091))
(define-fun .def_2093 () Bool (and .def_1728 .def_2092))
(define-fun .def_2094 () Bool (and .def_1802 .def_2093))
(define-fun .def_2095 () Bool (and .def_1882 .def_2094))
(define-fun .def_2096 () Bool (and .def_1553 .def_2095))
(define-fun .def_2097 () Bool (and .def_1561 .def_2096))
(define-fun .def_2098 () Bool (and .def_1568 .def_2097))
(define-fun .def_2099 () Bool (and .def_1575 .def_2098))
(define-fun .def_2135 () Bool (or .def_2099 .def_2134))
(define-fun .def_2036 () Bool (and .def_1691 .def_2035))
(define-fun .def_2081 () Bool (and param_e04 .def_2036))
(define-fun .def_2082 () Bool (and .def_1710 .def_2081))
(define-fun .def_2083 () Bool (and .def_1728 .def_2082))
(define-fun .def_2084 () Bool (and .def_1802 .def_2083))
(define-fun .def_2085 () Bool (and .def_1882 .def_2084))
(define-fun .def_2086 () Bool (and .def_1553 .def_2085))
(define-fun .def_2087 () Bool (and .def_1561 .def_2086))
(define-fun .def_2088 () Bool (and .def_1568 .def_2087))
(define-fun .def_2089 () Bool (and .def_1575 .def_2088))
(define-fun .def_2136 () Bool (or .def_2089 .def_2135))
(define-fun .def_2037 () Bool (and .def_1674 .def_2036))
(define-fun .def_2073 () Bool (and param_e05 .def_2037))
(define-fun .def_2074 () Bool (and .def_1728 .def_2073))
(define-fun .def_2075 () Bool (and .def_1802 .def_2074))
(define-fun .def_2076 () Bool (and .def_1882 .def_2075))
(define-fun .def_2077 () Bool (and .def_1553 .def_2076))
(define-fun .def_2078 () Bool (and .def_1561 .def_2077))
(define-fun .def_2079 () Bool (and .def_1568 .def_2078))
(define-fun .def_2080 () Bool (and .def_1575 .def_2079))
(define-fun .def_2137 () Bool (or .def_2080 .def_2136))
(define-fun .def_2038 () Bool (and .def_1710 .def_2037))
(define-fun .def_2066 () Bool (and param_e06 .def_2038))
(define-fun .def_2067 () Bool (and .def_1802 .def_2066))
(define-fun .def_2068 () Bool (and .def_1882 .def_2067))
(define-fun .def_2069 () Bool (and .def_1553 .def_2068))
(define-fun .def_2070 () Bool (and .def_1561 .def_2069))
(define-fun .def_2071 () Bool (and .def_1568 .def_2070))
(define-fun .def_2072 () Bool (and .def_1575 .def_2071))
(define-fun .def_2138 () Bool (or .def_2072 .def_2137))
(define-fun .def_2039 () Bool (and .def_1728 .def_2038))
(define-fun .def_2060 () Bool (and param_e07 .def_2039))
(define-fun .def_2061 () Bool (and .def_1882 .def_2060))
(define-fun .def_2062 () Bool (and .def_1553 .def_2061))
(define-fun .def_2063 () Bool (and .def_1561 .def_2062))
(define-fun .def_2064 () Bool (and .def_1568 .def_2063))
(define-fun .def_2065 () Bool (and .def_1575 .def_2064))
(define-fun .def_2139 () Bool (or .def_2065 .def_2138))
(define-fun .def_2040 () Bool (and .def_1802 .def_2039))
(define-fun .def_2055 () Bool (and param_e08 .def_2040))
(define-fun .def_2056 () Bool (and .def_1553 .def_2055))
(define-fun .def_2057 () Bool (and .def_1561 .def_2056))
(define-fun .def_2058 () Bool (and .def_1568 .def_2057))
(define-fun .def_2059 () Bool (and .def_1575 .def_2058))
(define-fun .def_2140 () Bool (or .def_2059 .def_2139))
(define-fun .def_2041 () Bool (and .def_1882 .def_2040))
(define-fun .def_2051 () Bool (and param_e09 .def_2041))
(define-fun .def_2052 () Bool (and .def_1561 .def_2051))
(define-fun .def_2053 () Bool (and .def_1568 .def_2052))
(define-fun .def_2054 () Bool (and .def_1575 .def_2053))
(define-fun .def_2141 () Bool (or .def_2054 .def_2140))
(define-fun .def_2042 () Bool (and .def_1553 .def_2041))
(define-fun .def_2048 () Bool (and param_e10 .def_2042))
(define-fun .def_2049 () Bool (and .def_1568 .def_2048))
(define-fun .def_2050 () Bool (and .def_1575 .def_2049))
(define-fun .def_2142 () Bool (or .def_2050 .def_2141))
(define-fun .def_2043 () Bool (and .def_1561 .def_2042))
(define-fun .def_2046 () Bool (and param_e11 .def_2043))
(define-fun .def_2047 () Bool (and .def_1575 .def_2046))
(define-fun .def_2143 () Bool (or .def_2047 .def_2142))
(define-fun .def_2044 () Bool (and .def_1568 .def_2043))
(define-fun .def_2045 () Bool (and param_e12 .def_2044))
(define-fun .def_2144 () Bool (or .def_2045 .def_2143))
(define-fun .def_2145 () Bool (= call_excludes12.excludes .def_2144))
(define-fun .def_2033 () Bool (= call__DRAGON_.mem_init call__DRAGON_.flby))
(define-fun .def_2031 () Bool (= call__DRAGON_.erreur call__DRAGON_.ite))
(define-fun .def_2029 () Bool (= call__DRAGON_.flby6 call__DRAGON_.invalid))
(define-fun .def_2027 () Bool (= call__DRAGON_.flby5 call__DRAGON_.dirty))
(define-fun .def_2025 () Bool (= call__DRAGON_.flby4 call__DRAGON_.shared_dirty))
(define-fun .def_2023 () Bool (= call__DRAGON_.flby3 call__DRAGON_.shared))
(define-fun .def_2020 () Bool (= call__DRAGON_.flby2 call__DRAGON_.exclusive))
(define-fun .def_2015 () Bool (<= 2 call__DRAGON_.exclusive))
(define-fun .def_2017 () Bool (not .def_2015))
(define-fun .def_2018 () Bool (or call__DRAGON_.ite .def_2017))
(define-fun .def_2014 () Bool (not call__DRAGON_.ite))
(define-fun .def_2016 () Bool (or .def_2014 .def_2015))
(define-fun .def_2019 () Bool (and .def_2016 .def_2018))
(define-fun .def_2021 () Bool (and .def_2019 .def_2020))
(define-fun .def_2009 () Bool (= call__DRAGON_.ite30 call__DRAGON_.ite31))
(define-fun .def_2010 () Bool (or param_e02 .def_2009))
(define-fun .def_2006 () Bool (= call__DRAGON_.ite22 call__DRAGON_.ite31))
(define-fun .def_2007 () Bool (or .def_1980 .def_2006))
(define-fun .def_2001 () Bool (= call__DRAGON_.ite20 call__DRAGON_.ite21))
(define-fun .def_2002 () Bool (or param_e02 .def_2001))
(define-fun .def_1998 () Bool (= call__DRAGON_.ite12 call__DRAGON_.ite21))
(define-fun .def_1999 () Bool (or .def_1980 .def_1998))
(define-fun .def_1993 () Bool (= call__DRAGON_.ite9 call__DRAGON_.ite10))
(define-fun .def_1994 () Bool (or param_e02 .def_1993))
(define-fun .def_1990 () Bool (= call__DRAGON_.ite3 call__DRAGON_.ite10))
(define-fun .def_1991 () Bool (or .def_1980 .def_1990))
(define-fun .def_1987 () Bool (= call__DRAGON_.ite59 call__DRAGON_.ite60))
(define-fun .def_1988 () Bool (or param_e02 .def_1987))
(define-fun .def_1984 () Bool (= call__DRAGON_.ite60 call__DRAGON_.ite47))
(define-fun .def_1985 () Bool (or .def_1980 .def_1984))
(define-fun .def_1979 () Bool (= call__DRAGON_.ite32 call__DRAGON_.ite45))
(define-fun .def_1981 () Bool (or .def_1979 .def_1980))
(define-fun .def_1976 () Bool (= call__DRAGON_.ite44 call__DRAGON_.ite45))
(define-fun .def_1978 () Bool (or .def_1976 param_e02))
(define-fun .def_1982 () Bool (and .def_1978 .def_1981))
(define-fun .def_1986 () Bool (and .def_1982 .def_1985))
(define-fun .def_1989 () Bool (and .def_1986 .def_1988))
(define-fun .def_1992 () Bool (and .def_1989 .def_1991))
(define-fun .def_1995 () Bool (and .def_1992 .def_1994))
(define-fun .def_2000 () Bool (and .def_1995 .def_1999))
(define-fun .def_2003 () Bool (and .def_2000 .def_2002))
(define-fun .def_2008 () Bool (and .def_2003 .def_2007))
(define-fun .def_2011 () Bool (and .def_2008 .def_2010))
(define-fun .def_1971 () Bool (= call__DRAGON_.ite11 call__DRAGON_.ite10))
(define-fun .def_1972 () Bool (or param_e01 .def_1971))
(define-fun .def_1967 () Bool (= call__DRAGON_.ite2 call__DRAGON_.ite11))
(define-fun .def_1968 () Bool (or .def_1962 .def_1967))
(define-fun .def_1961 () Bool (= call__DRAGON_.ite61 call__DRAGON_.ite46))
(define-fun .def_1963 () Bool (or .def_1961 .def_1962))
(define-fun .def_1957 () Bool (= call__DRAGON_.ite61 call__DRAGON_.ite60))
(define-fun .def_1959 () Bool (or .def_1957 param_e01))
(define-fun .def_1964 () Bool (and .def_1959 .def_1963))
(define-fun .def_1969 () Bool (and .def_1964 .def_1968))
(define-fun .def_1973 () Bool (and .def_1969 .def_1972))
(define-fun .def_1951 () Bool (= call__DRAGON_.ite55 call__DRAGON_.ite52))
(define-fun .def_1952 () Bool (or .def_1568 .def_1951))
(define-fun .def_1948 () Bool (= call__DRAGON_.ite54 call__DRAGON_.ite55))
(define-fun .def_1949 () Bool (or param_e11 .def_1948))
(define-fun .def_1953 () Bool (and .def_1949 .def_1952))
(define-fun .def_1944 () Bool (= call__DRAGON_.ite56 call__DRAGON_.ite51))
(define-fun .def_1945 () Bool (or .def_1561 .def_1944))
(define-fun .def_1941 () Bool (= call__DRAGON_.ite56 call__DRAGON_.ite55))
(define-fun .def_1942 () Bool (or param_e10 .def_1941))
(define-fun .def_1946 () Bool (and .def_1942 .def_1945))
(define-fun .def_1936 () Bool (= call__DRAGON_.ite57 call__DRAGON_.ite50))
(define-fun .def_1937 () Bool (or .def_1553 .def_1936))
(define-fun .def_1933 () Bool (= call__DRAGON_.ite57 call__DRAGON_.ite56))
(define-fun .def_1934 () Bool (or param_e09 .def_1933))
(define-fun .def_1938 () Bool (and .def_1934 .def_1937))
(define-fun .def_1930 () Bool (= env call_Sofar.Sofar))
(define-fun .def_1927 () Bool (= erreur call__DRAGON_.erreur))
(define-fun .def_1922 () Bool (<= invalid call_First5.First))
(define-fun .def_1792 () Bool (not env))
(define-fun .def_1923 () Bool (or .def_1792 .def_1922))
(define-fun .def_1924 () Bool (= _R14_ .def_1923))
(define-fun .def_1917 () Bool (<= dirty call_First4.First))
(define-fun .def_1918 () Bool (or .def_1792 .def_1917))
(define-fun .def_1919 () Bool (= _R13_ .def_1918))
(define-fun .def_1912 () Bool (<= shared_dirty call_First3.First))
(define-fun .def_1913 () Bool (or .def_1792 .def_1912))
(define-fun .def_1914 () Bool (= _R12_ .def_1913))
(define-fun .def_1907 () Bool (= call__DRAGON_.ite39 call__DRAGON_.ite40))
(define-fun .def_1908 () Bool (or param_e08 .def_1907))
(define-fun .def_1904 () Bool (= call__DRAGON_.ite37 call__DRAGON_.ite40))
(define-fun .def_1905 () Bool (or .def_1882 .def_1904))
(define-fun .def_1901 () Bool (= call__DRAGON_.ite27 call__DRAGON_.ite28))
(define-fun .def_1902 () Bool (or param_e08 .def_1901))
(define-fun .def_1898 () Bool (= call__DRAGON_.ite25 call__DRAGON_.ite28))
(define-fun .def_1899 () Bool (or .def_1882 .def_1898))
(define-fun .def_1895 () Bool (= call__DRAGON_.ite17 call__DRAGON_.ite18))
(define-fun .def_1896 () Bool (or param_e08 .def_1895))
(define-fun .def_1892 () Bool (= call__DRAGON_.ite18 call__DRAGON_.ite15))
(define-fun .def_1893 () Bool (or .def_1882 .def_1892))
(define-fun .def_1888 () Bool (= call__DRAGON_.ite7 call__DRAGON_.ite8))
(define-fun .def_1889 () Bool (or param_e08 .def_1888))
(define-fun .def_1885 () Bool (= call__DRAGON_.ite5 call__DRAGON_.ite8))
(define-fun .def_1886 () Bool (or .def_1882 .def_1885))
(define-fun .def_1881 () Bool (= call__DRAGON_.ite58 call__DRAGON_.ite49))
(define-fun .def_1883 () Bool (or .def_1881 .def_1882))
(define-fun .def_1877 () Bool (= call__DRAGON_.ite58 call__DRAGON_.ite57))
(define-fun .def_1879 () Bool (or .def_1877 param_e08))
(define-fun .def_1884 () Bool (and .def_1879 .def_1883))
(define-fun .def_1887 () Bool (and .def_1884 .def_1886))
(define-fun .def_1890 () Bool (and .def_1887 .def_1889))
(define-fun .def_1894 () Bool (and .def_1890 .def_1893))
(define-fun .def_1897 () Bool (and .def_1894 .def_1896))
(define-fun .def_1900 () Bool (and .def_1897 .def_1899))
(define-fun .def_1903 () Bool (and .def_1900 .def_1902))
(define-fun .def_1906 () Bool (and .def_1903 .def_1905))
(define-fun .def_1909 () Bool (and .def_1906 .def_1908))
(define-fun .def_1872 () Bool (<= shared call_First2.First))
(define-fun .def_1873 () Bool (or .def_1792 .def_1872))
(define-fun .def_1874 () Bool (= _R11_ .def_1873))
(define-fun .def_1867 () Bool (<= 0 invalid))
(define-fun .def_1868 () Bool (or .def_1792 .def_1867))
(define-fun .def_1869 () Bool (= _R10_ .def_1868))
(define-fun .def_1863 () Bool (<= 0 dirty))
(define-fun .def_1864 () Bool (or .def_1792 .def_1863))
(define-fun .def_1865 () Bool (= _R9_ .def_1864))
(define-fun .def_1859 () Bool (<= 0 shared_dirty))
(define-fun .def_1860 () Bool (or .def_1792 .def_1859))
(define-fun .def_1861 () Bool (= _R8_ .def_1860))
(define-fun .def_1855 () Bool (<= 0 exclusive))
(define-fun .def_1856 () Bool (or .def_1792 .def_1855))
(define-fun .def_1857 () Bool (= _R7_ .def_1856))
(define-fun .def_1851 () Bool (<= 0 shared))
(define-fun .def_1852 () Bool (or .def_1792 .def_1851))
(define-fun .def_1853 () Bool (= _R6_ .def_1852))
(define-fun .def_1845 () Bool (<= 1 shared))
(define-fun .def_1846 () Bool (not .def_1845))
(define-fun .def_1843 () Bool (<= 1 dirty))
(define-fun .def_1844 () Bool (not .def_1843))
(define-fun .def_1847 () Bool (or .def_1844 .def_1846))
(define-fun .def_1848 () Bool (or .def_1792 .def_1847))
(define-fun .def_1849 () Bool (= _R5_ .def_1848))
(define-fun .def_1839 () Bool (<= dirty 1))
(define-fun .def_1840 () Bool (or .def_1792 .def_1839))
(define-fun .def_1841 () Bool (= _R4_ .def_1840))
(define-fun .def_1829 () Int (* (- 1) call_First.First))
(define-fun .def_1830 () Int (+ invalid .def_1829))
(define-fun .def_1831 () Int (+ dirty .def_1830))
(define-fun .def_1832 () Int (+ shared_dirty .def_1831))
(define-fun .def_1833 () Int (+ shared .def_1832))
(define-fun .def_1834 () Int (+ exclusive .def_1833))
(define-fun .def_1835 () Bool (= .def_1834 0))
(define-fun .def_1836 () Bool (or .def_1792 .def_1835))
(define-fun .def_1837 () Bool (= _R3_ .def_1836))
(define-fun .def_1815 () Bool (or flby .def_1792))
(define-fun .def_1816 () Bool (= _R2_ .def_1815))
(define-fun .def_1811 () Bool (= call__DRAGON_.ite59 call__DRAGON_.ite58))
(define-fun .def_1812 () Bool (or param_e07 .def_1811))
(define-fun .def_1807 () Bool (= call__DRAGON_.ite48 call__DRAGON_.ite59))
(define-fun .def_1808 () Bool (or .def_1802 .def_1807))
(define-fun .def_1801 () Bool (= call__DRAGON_.ite41 call__DRAGON_.ite36))
(define-fun .def_1803 () Bool (or .def_1801 .def_1802))
(define-fun .def_1797 () Bool (= call__DRAGON_.ite41 call__DRAGON_.ite40))
(define-fun .def_1799 () Bool (or .def_1797 param_e07))
(define-fun .def_1804 () Bool (and .def_1799 .def_1803))
(define-fun .def_1809 () Bool (and .def_1804 .def_1808))
(define-fun .def_1813 () Bool (and .def_1809 .def_1812))
(define-fun .def_1790 () Bool (not erreur))
(define-fun .def_1793 () Bool (or .def_1790 .def_1792))
(define-fun .def_1794 () Bool (= _R1_ .def_1793))
(define-fun .def_1787 () Bool (= invalid call__DRAGON_.invalid))
(define-fun .def_1783 () Bool (= dirty call__DRAGON_.dirty))
(define-fun .def_1779 () Bool (= shared_dirty call__DRAGON_.shared_dirty))
(define-fun .def_1775 () Bool (= shared call__DRAGON_.shared))
(define-fun .def_1771 () Bool (= exclusive call__DRAGON_.exclusive))
(define-fun .def_1742 () Bool (and _R1_ _R2_))
(define-fun .def_1744 () Bool (and .def_1742 _R3_))
(define-fun .def_1746 () Bool (and .def_1744 _R4_))
(define-fun .def_1748 () Bool (and .def_1746 _R5_))
(define-fun .def_1750 () Bool (and .def_1748 _R6_))
(define-fun .def_1752 () Bool (and .def_1750 _R7_))
(define-fun .def_1754 () Bool (and .def_1752 _R8_))
(define-fun .def_1756 () Bool (and .def_1754 _R9_))
(define-fun .def_1758 () Bool (and .def_1756 _R10_))
(define-fun .def_1760 () Bool (and .def_1758 _R11_))
(define-fun .def_1762 () Bool (and .def_1760 _R12_))
(define-fun .def_1764 () Bool (and .def_1762 _R13_))
(define-fun .def_1766 () Bool (and .def_1764 _R14_))
(define-fun .def_1767 () Bool (= _OK_ .def_1766))
(define-fun .def_1735 () Bool (= call__DRAGON_.ite29 call__DRAGON_.ite28))
(define-fun .def_1736 () Bool (or param_e06 .def_1735))
(define-fun .def_1731 () Bool (= call__DRAGON_.ite24 call__DRAGON_.ite29))
(define-fun .def_1732 () Bool (or .def_1728 .def_1731))
(define-fun .def_1727 () Bool (= call__DRAGON_.ite19 call__DRAGON_.ite14))
(define-fun .def_1729 () Bool (or .def_1727 .def_1728))
(define-fun .def_1723 () Bool (= call__DRAGON_.ite19 call__DRAGON_.ite18))
(define-fun .def_1725 () Bool (or .def_1723 param_e06))
(define-fun .def_1730 () Bool (and .def_1725 .def_1729))
(define-fun .def_1733 () Bool (and .def_1730 .def_1732))
(define-fun .def_1737 () Bool (and .def_1733 .def_1736))
(define-fun .def_1718 () Bool (= call__DRAGON_.ite20 call__DRAGON_.ite19))
(define-fun .def_1719 () Bool (or param_e05 .def_1718))
(define-fun .def_1714 () Bool (= call__DRAGON_.ite13 call__DRAGON_.ite20))
(define-fun .def_1715 () Bool (or .def_1710 .def_1714))
(define-fun .def_1709 () Bool (= call__DRAGON_.ite42 call__DRAGON_.ite35))
(define-fun .def_1711 () Bool (or .def_1709 .def_1710))
(define-fun .def_1705 () Bool (= call__DRAGON_.ite42 call__DRAGON_.ite41))
(define-fun .def_1707 () Bool (or .def_1705 param_e05))
(define-fun .def_1712 () Bool (and .def_1707 .def_1711))
(define-fun .def_1716 () Bool (and .def_1712 .def_1715))
(define-fun .def_1720 () Bool (and .def_1716 .def_1719))
(define-fun .def_1700 () Bool (= call__DRAGON_.ite9 call__DRAGON_.ite8))
(define-fun .def_1701 () Bool (or param_e03 .def_1700))
(define-fun .def_1696 () Bool (= call__DRAGON_.ite4 call__DRAGON_.ite9))
(define-fun .def_1697 () Bool (or .def_1691 .def_1696))
(define-fun .def_1690 () Bool (= call__DRAGON_.ite44 call__DRAGON_.ite33))
(define-fun .def_1692 () Bool (or .def_1690 .def_1691))
(define-fun .def_1686 () Bool (= call__DRAGON_.ite43 call__DRAGON_.ite44))
(define-fun .def_1688 () Bool (or .def_1686 param_e03))
(define-fun .def_1693 () Bool (and .def_1688 .def_1692))
(define-fun .def_1698 () Bool (and .def_1693 .def_1697))
(define-fun .def_1702 () Bool (and .def_1698 .def_1701))
(define-fun .def_1682 () Bool (= call__DRAGON_.ite30 call__DRAGON_.ite29))
(define-fun .def_1683 () Bool (or param_e04 .def_1682))
(define-fun .def_1678 () Bool (= call__DRAGON_.ite23 call__DRAGON_.ite30))
(define-fun .def_1679 () Bool (or .def_1674 .def_1678))
(define-fun .def_1673 () Bool (= call__DRAGON_.ite43 call__DRAGON_.ite34))
(define-fun .def_1675 () Bool (or .def_1673 .def_1674))
(define-fun .def_1669 () Bool (= call__DRAGON_.ite43 call__DRAGON_.ite42))
(define-fun .def_1671 () Bool (or .def_1669 param_e04))
(define-fun .def_1676 () Bool (and .def_1671 .def_1675))
(define-fun .def_1680 () Bool (and .def_1676 .def_1679))
(define-fun .def_1684 () Bool (and .def_1680 .def_1683))
(define-fun .def_1703 () Bool (and .def_1684 .def_1702))
(define-fun .def_1721 () Bool (and .def_1703 .def_1720))
(define-fun .def_1738 () Bool (and .def_1721 .def_1737))
(define-fun .def_1768 () Bool (and .def_1738 .def_1767))
(define-fun .def_1772 () Bool (and .def_1768 .def_1771))
(define-fun .def_1776 () Bool (and .def_1772 .def_1775))
(define-fun .def_1780 () Bool (and .def_1776 .def_1779))
(define-fun .def_1784 () Bool (and .def_1780 .def_1783))
(define-fun .def_1788 () Bool (and .def_1784 .def_1787))
(define-fun .def_1795 () Bool (and .def_1788 .def_1794))
(define-fun .def_1814 () Bool (and .def_1795 .def_1813))
(define-fun .def_1817 () Bool (and .def_1814 .def_1816))
(define-fun .def_1838 () Bool (and .def_1817 .def_1837))
(define-fun .def_1842 () Bool (and .def_1838 .def_1841))
(define-fun .def_1850 () Bool (and .def_1842 .def_1849))
(define-fun .def_1854 () Bool (and .def_1850 .def_1853))
(define-fun .def_1858 () Bool (and .def_1854 .def_1857))
(define-fun .def_1862 () Bool (and .def_1858 .def_1861))
(define-fun .def_1866 () Bool (and .def_1862 .def_1865))
(define-fun .def_1870 () Bool (and .def_1866 .def_1869))
(define-fun .def_1875 () Bool (and .def_1870 .def_1874))
(define-fun .def_1910 () Bool (and .def_1875 .def_1909))
(define-fun .def_1915 () Bool (and .def_1910 .def_1914))
(define-fun .def_1920 () Bool (and .def_1915 .def_1919))
(define-fun .def_1925 () Bool (and .def_1920 .def_1924))
(define-fun .def_1928 () Bool (and .def_1925 .def_1927))
(define-fun .def_1931 () Bool (and .def_1928 .def_1930))
(define-fun .def_1939 () Bool (and .def_1931 .def_1938))
(define-fun .def_1947 () Bool (and .def_1939 .def_1946))
(define-fun .def_1954 () Bool (and .def_1947 .def_1953))
(define-fun .def_1974 () Bool (and .def_1954 .def_1973))
(define-fun .def_2012 () Bool (and .def_1974 .def_2011))
(define-fun .def_2022 () Bool (and .def_2012 .def_2021))
(define-fun .def_2024 () Bool (and .def_2022 .def_2023))
(define-fun .def_2026 () Bool (and .def_2024 .def_2025))
(define-fun .def_2028 () Bool (and .def_2026 .def_2027))
(define-fun .def_2030 () Bool (and .def_2028 .def_2029))
(define-fun .def_2032 () Bool (and .def_2030 .def_2031))
(define-fun .def_2034 () Bool (and .def_2032 .def_2033))
(define-fun .def_2146 () Bool (and .def_2034 .def_2145))
(define-fun .def_2148 () Bool (and .def_2146 .def_2147))
(define-fun .def_2150 () Bool (and .def_2148 .def_2149))
(define-fun .def_2152 () Bool (and .def_2150 .def_2151))
(define-fun .def_2154 () Bool (and .def_2152 .def_2153))
(define-fun .def_2156 () Bool (and .def_2154 .def_2155))
(define-fun .def_2158 () Bool (and .def_2156 .def_2157))
(define-fun .def_1665 () Bool (= param_init_invalid call_First5.flby))
(define-fun .def_1662 () Bool (= param_init_invalid call_First4.flby))
(define-fun .def_1659 () Bool (= param_init_invalid call_First3.flby))
(define-fun .def_1656 () Bool (= param_init_invalid call_First2.flby))
(define-fun .def_1653 () Bool (= param_init_invalid call_First.flby))
(define-fun .def_1645 () Bool (<= param_init_invalid 0))
(define-fun .def_1646 () Bool (not .def_1645))
(define-fun .def_1648 () Bool (and .def_1646 call_excludes12.excludes))
(define-fun .def_1650 () Bool (= .def_1648 call_Sofar.flby))
(define-fun .def_1643 () Bool (= call__DRAGON_.flby4 0))
(define-fun .def_1640 () Bool (= call__DRAGON_.flby3 0))
(define-fun .def_1637 () Bool (= call__DRAGON_.flby2 0))
(define-fun .def_1634 () Bool (= param_init_invalid call__DRAGON_.flby))
(define-fun .def_1628 () Bool (= call__DRAGON_.ite37 0))
(define-fun .def_1621 () Bool (not call__DRAGON_.g08))
(define-fun .def_1629 () Bool (or .def_1621 .def_1628))
(define-fun .def_1624 () Bool (= call__DRAGON_.ite5 0))
(define-fun .def_1625 () Bool (or .def_1621 .def_1624))
(define-fun .def_1619 () Bool (= call__DRAGON_.ite25 1))
(define-fun .def_1622 () Bool (or .def_1619 .def_1621))
(define-fun .def_1626 () Bool (and .def_1622 .def_1625))
(define-fun .def_1630 () Bool (and .def_1626 .def_1629))
(define-fun .def_1615 () Bool (= call__DRAGON_.ite24 1))
(define-fun .def_1613 () Bool (not call__DRAGON_.g06))
(define-fun .def_1616 () Bool (or .def_1613 .def_1615))
(define-fun .def_1609 () Bool (= call__DRAGON_.ite13 0))
(define-fun .def_1607 () Bool (not call__DRAGON_.g05))
(define-fun .def_1610 () Bool (or .def_1607 .def_1609))
(define-fun .def_1603 () Bool (= call__DRAGON_.ite23 0))
(define-fun .def_1601 () Bool (not call__DRAGON_.g04))
(define-fun .def_1604 () Bool (or .def_1601 .def_1603))
(define-fun .def_1596 () Bool (= call__DRAGON_.ite3 0))
(define-fun .def_1593 () Bool (not call__DRAGON_.g02))
(define-fun .def_1597 () Bool (or .def_1593 .def_1596))
(define-fun .def_1591 () Bool (= call__DRAGON_.ite32 0))
(define-fun .def_1594 () Bool (or .def_1591 .def_1593))
(define-fun .def_1598 () Bool (and .def_1594 .def_1597))
(define-fun .def_1588 () Bool (= call__DRAGON_.flby6 call__DRAGON_.mem_init))
(define-fun .def_1584 () Bool (= call__DRAGON_.flby5 0))
(define-fun .def_1579 () Bool (= call__DRAGON_.ite53 call__DRAGON_.ite54))
(define-fun .def_1580 () Bool (or .def_1575 .def_1579))
(define-fun .def_1573 () Bool (= call__DRAGON_.ite6 call__DRAGON_.ite7))
(define-fun .def_1576 () Bool (or .def_1573 .def_1575))
(define-fun .def_1581 () Bool (and .def_1576 .def_1580))
(define-fun .def_1566 () Bool (= call__DRAGON_.ite26 call__DRAGON_.ite27))
(define-fun .def_1569 () Bool (or .def_1566 .def_1568))
(define-fun .def_1559 () Bool (= call__DRAGON_.ite16 call__DRAGON_.ite17))
(define-fun .def_1562 () Bool (or .def_1559 .def_1561))
(define-fun .def_1551 () Bool (= call__DRAGON_.ite38 call__DRAGON_.ite39))
(define-fun .def_1554 () Bool (or .def_1551 .def_1553))
(define-fun .def_1556 () Bool (and .def_1554 flby))
(define-fun .def_1563 () Bool (and .def_1556 .def_1562))
(define-fun .def_1570 () Bool (and .def_1563 .def_1569))
(define-fun .def_1582 () Bool (and .def_1570 .def_1581))
(define-fun .def_1585 () Bool (and .def_1582 .def_1584))
(define-fun .def_1589 () Bool (and .def_1585 .def_1588))
(define-fun .def_1599 () Bool (and .def_1589 .def_1598))
(define-fun .def_1605 () Bool (and .def_1599 .def_1604))
(define-fun .def_1611 () Bool (and .def_1605 .def_1610))
(define-fun .def_1617 () Bool (and .def_1611 .def_1616))
(define-fun .def_1631 () Bool (and .def_1617 .def_1630))
(define-fun .def_1635 () Bool (and .def_1631 .def_1634))
(define-fun .def_1638 () Bool (and .def_1635 .def_1637))
(define-fun .def_1641 () Bool (and .def_1638 .def_1640))
(define-fun .def_1644 () Bool (and .def_1641 .def_1643))
(define-fun .def_1651 () Bool (and .def_1644 .def_1650))
(define-fun .def_1654 () Bool (and .def_1651 .def_1653))
(define-fun .def_1657 () Bool (and .def_1654 .def_1656))
(define-fun .def_1660 () Bool (and .def_1657 .def_1659))
(define-fun .def_1663 () Bool (and .def_1660 .def_1662))
(define-fun .def_1666 () Bool (and .def_1663 .def_1665))
(define-fun .def_2159 () Bool (and .def_1666 .def_2158))
(assert .def_2159)
